(set-logic QF_SLIA)
(set-option :produce-models true)
(declare-fun x () String)
(assert (str.in_re x (re.++ (str.to_re "3") (re.opt (re.union (re.range "0" "3") (re.range "3" "8"))))))
(assert (= (mod (mod (str.to_int x) 310) 21) 19))
(assert (< (str.len x) 100))
(check-sat)
(get-model)